2848
3405
3616
3724
3801
3900
3985
4035
4078
4131
4152
4180
4197
4230
4275
4316
4342
4386
4431
4483
4531
4564
4636
4664
4679
4714
4742
4766
4793
4824
4840
4861
4895
4923
4935
4956
4966
4979
5000
5018
5031
5043
5070
5109
5146
5184
5206
5223
5240
5268
5297
5327
5341
5346
5351
5357
5365
5373
5374
5377
5379
5382
5389
5395
5399
5405
5413
5425
5437
5453
5474
5475
5476
5476
5480
5480
5483
5491
5501
5511
5522
5536
5550
5575
5602
5639
5656
5683
5722
5755
5783
5818
5834
5852
5872
5894
5894
5894
5894
